c 
c G(k,n,p) graph
c graph gen seed     : 74740
c number of vertices : 50
c max number of edges: 625
c number of classes  : 2
c edge density       : 0.300000
c edge probability   : 0.600000
c data structure     : dense
c
c           Graph Stats
c number of vertices  : 50
c nonisolated vertices: 50
c number of edges     : 379
c edge density        : 0.309388
c max degree          : 21
c avg degree          : 15.16
c min degree          : 7
p col 50 379
e 1 4
e 1 6
e 1 7
e 1 9
e 1 14
e 1 15
e 1 17
e 1 18
e 1 20
e 1 24
e 1 27
e 1 32
e 1 40
e 1 43
e 1 46
e 1 49
e 1 50
e 2 3
e 2 10
e 2 16
e 2 19
e 2 25
e 2 26
e 2 31
e 2 33
e 2 35
e 2 42
e 2 45
e 2 47
e 3 4
e 3 6
e 3 9
e 3 12
e 3 13
e 3 15
e 3 17
e 3 18
e 3 20
e 3 27
e 3 28
e 3 29
e 3 32
e 3 40
e 3 41
e 3 43
e 3 46
e 3 48
e 3 49
e 4 8
e 4 10
e 4 11
e 4 16
e 4 19
e 4 25
e 4 26
e 4 31
e 4 33
e 4 35
e 4 36
e 4 37
e 4 42
e 4 44
e 4 45
e 5 7
e 5 13
e 5 14
e 5 15
e 5 17
e 5 18
e 5 20
e 5 24
e 5 27
e 5 29
e 5 32
e 5 41
e 5 46
e 6 8
e 6 10
e 6 11
e 6 16
e 6 19
e 6 21
e 6 23
e 6 30
e 6 35
e 6 37
e 6 44
e 6 45
e 6 47
e 7 8
e 7 10
e 7 11
e 7 16
e 7 19
e 7 23
e 7 25
e 7 31
e 7 35
e 7 36
e 7 42
e 7 44
e 8 12
e 8 14
e 8 17
e 8 18
e 8 22
e 8 24
e 8 28
e 8 29
e 8 41
e 8 46
e 8 48
e 8 49
e 8 50
e 9 11
e 9 16
e 9 21
e 9 23
e 9 25
e 9 26
e 9 30
e 9 31
e 9 35
e 9 36
e 9 42
e 9 44
e 9 47
e 10 12
e 10 17
e 10 20
e 10 22
e 10 29
e 10 32
e 10 34
e 10 40
e 10 41
e 10 48
e 10 49
e 11 12
e 11 13
e 11 14
e 11 17
e 11 18
e 11 22
e 11 24
e 11 27
e 11 28
e 11 32
e 11 41
e 11 46
e 11 50
e 12 26
e 12 30
e 12 31
e 12 33
e 12 35
e 12 37
e 12 42
e 12 44
e 12 45
e 13 16
e 13 21
e 13 25
e 13 26
e 13 30
e 13 35
e 13 36
e 13 38
e 13 42
e 14 16
e 14 19
e 14 21
e 14 23
e 14 25
e 14 26
e 14 33
e 14 37
e 14 42
e 14 44
e 14 47
e 15 19
e 15 23
e 15 25
e 15 30
e 15 31
e 15 36
e 15 37
e 15 38
e 15 42
e 15 45
e 15 47
e 16 17
e 16 18
e 16 20
e 16 22
e 16 24
e 16 34
e 16 39
e 16 40
e 16 41
e 16 43
e 16 46
e 16 48
e 16 50
e 17 19
e 17 21
e 17 23
e 17 25
e 17 33
e 17 36
e 17 38
e 17 42
e 17 45
e 17 47
e 18 19
e 18 21
e 18 23
e 18 26
e 18 33
e 18 38
e 18 44
e 19 20
e 19 22
e 19 27
e 19 29
e 19 39
e 19 46
e 19 49
e 20 21
e 20 23
e 20 26
e 20 31
e 20 35
e 20 36
e 20 37
e 20 38
e 20 42
e 20 45
e 20 47
e 21 28
e 21 34
e 21 39
e 21 40
e 21 41
e 21 48
e 21 49
e 21 50
e 22 25
e 22 26
e 22 31
e 22 33
e 22 36
e 22 37
e 22 42
e 22 44
e 22 45
e 23 24
e 23 28
e 23 29
e 23 43
e 23 46
e 23 48
e 23 50
e 24 25
e 24 26
e 24 30
e 24 33
e 24 36
e 24 37
e 24 44
e 24 47
e 25 34
e 25 39
e 25 40
e 25 46
e 25 49
e 25 50
e 26 27
e 26 28
e 26 29
e 26 34
e 26 39
e 26 40
e 26 43
e 26 46
e 26 48
e 26 49
e 26 50
e 27 30
e 27 31
e 27 35
e 27 36
e 27 37
e 27 42
e 27 45
e 28 30
e 28 33
e 28 37
e 28 38
e 28 42
e 29 30
e 29 31
e 29 33
e 29 35
e 29 36
e 29 37
e 29 42
e 29 44
e 29 47
e 30 41
e 30 46
e 30 48
e 30 49
e 30 50
e 31 39
e 31 40
e 31 43
e 31 46
e 31 48
e 31 49
e 31 50
e 32 33
e 32 35
e 32 45
e 33 34
e 33 41
e 33 43
e 33 48
e 33 49
e 33 50
e 34 36
e 35 41
e 35 43
e 35 46
e 35 48
e 35 49
e 36 39
e 36 41
e 36 46
e 36 48
e 36 49
e 36 50
e 37 39
e 37 40
e 37 41
e 37 43
e 37 48
e 37 50
e 38 39
e 38 40
e 38 41
e 38 43
e 38 46
e 38 49
e 38 50
e 39 42
e 39 47
e 40 44
e 40 45
e 40 47
e 41 42
e 41 45
e 41 47
e 42 43
e 42 46
e 42 49
e 42 50
e 43 47
e 44 46
e 44 48
e 44 49
e 44 50
e 45 46
e 45 48
e 45 50
e 46 47
e 47 48
e 47 49
e 47 50
